src/ocaml/benchmarks/crypto/blst/armv8/blst_fp2_mul_by_3-armv8/blst_fp2_mul_by_3-armv8_2.smt2
(set-logic QF_BV)
(set-info :smt-lib-version 2.0)
(declare-fun x3_4 () (_ BitVec 64))
(declare-fun x3_3 () (_ BitVec 64))
(declare-fun x3_2 () (_ BitVec 64))
(declare-fun x3_1 () (_ BitVec 64))
(declare-fun x22_6 () (_ BitVec 64))
(declare-fun x22_4 () (_ BitVec 64))
(declare-fun x22_3 () (_ BitVec 64))
(declare-fun x22_1 () (_ BitVec 64))
(declare-fun x21_6 () (_ BitVec 64))
(declare-fun x21_4 () (_ BitVec 64))
(declare-fun x21_3 () (_ BitVec 64))
(declare-fun x21_1 () (_ BitVec 64))
(declare-fun x20_6 () (_ BitVec 64))
(declare-fun x20_4 () (_ BitVec 64))
(declare-fun x20_3 () (_ BitVec 64))
(declare-fun x20_1 () (_ BitVec 64))
(declare-fun x19_6 () (_ BitVec 64))
(declare-fun x19_4 () (_ BitVec 64))
(declare-fun x19_3 () (_ BitVec 64))
(declare-fun x19_1 () (_ BitVec 64))
(declare-fun x17_6 () (_ BitVec 64))
(declare-fun x17_4 () (_ BitVec 64))
(declare-fun x17_3 () (_ BitVec 64))
(declare-fun x17_1 () (_ BitVec 64))
(declare-fun x16_6 () (_ BitVec 64))
(declare-fun x16_4 () (_ BitVec 64))
(declare-fun x16_3 () (_ BitVec 64))
(declare-fun x16_1 () (_ BitVec 64))
(declare-fun x15_10 () (_ BitVec 64))
(declare-fun x15_9 () (_ BitVec 64))
(declare-fun x15_8 () (_ BitVec 64))
(declare-fun x15_7 () (_ BitVec 64))
(declare-fun x15_5 () (_ BitVec 64))
(declare-fun x15_4 () (_ BitVec 64))
(declare-fun x15_3 () (_ BitVec 64))
(declare-fun x15_2 () (_ BitVec 64))
(declare-fun x14_10 () (_ BitVec 64))
(declare-fun x14_9 () (_ BitVec 64))
(declare-fun x14_8 () (_ BitVec 64))
(declare-fun x14_7 () (_ BitVec 64))
(declare-fun x14_5 () (_ BitVec 64))
(declare-fun x14_4 () (_ BitVec 64))
(declare-fun x14_3 () (_ BitVec 64))
(declare-fun x14_2 () (_ BitVec 64))
(declare-fun x13_10 () (_ BitVec 64))
(declare-fun x13_9 () (_ BitVec 64))
(declare-fun x13_8 () (_ BitVec 64))
(declare-fun x13_7 () (_ BitVec 64))
(declare-fun x13_5 () (_ BitVec 64))
(declare-fun x13_4 () (_ BitVec 64))
(declare-fun x13_3 () (_ BitVec 64))
(declare-fun x13_2 () (_ BitVec 64))
(declare-fun x12_10 () (_ BitVec 64))
(declare-fun x12_9 () (_ BitVec 64))
(declare-fun x12_8 () (_ BitVec 64))
(declare-fun x12_7 () (_ BitVec 64))
(declare-fun x12_5 () (_ BitVec 64))
(declare-fun x12_4 () (_ BitVec 64))
(declare-fun x12_3 () (_ BitVec 64))
(declare-fun x12_2 () (_ BitVec 64))
(declare-fun x11_10 () (_ BitVec 64))
(declare-fun x11_9 () (_ BitVec 64))
(declare-fun x11_8 () (_ BitVec 64))
(declare-fun x11_7 () (_ BitVec 64))
(declare-fun x11_5 () (_ BitVec 64))
(declare-fun x11_4 () (_ BitVec 64))
(declare-fun x11_3 () (_ BitVec 64))
(declare-fun x11_2 () (_ BitVec 64))
(declare-fun x10_10 () (_ BitVec 64))
(declare-fun x10_9 () (_ BitVec 64))
(declare-fun x10_8 () (_ BitVec 64))
(declare-fun x10_7 () (_ BitVec 64))
(declare-fun x10_5 () (_ BitVec 64))
(declare-fun x10_4 () (_ BitVec 64))
(declare-fun x10_3 () (_ BitVec 64))
(declare-fun x10_2 () (_ BitVec 64))
(declare-fun m5_0 () (_ BitVec 64))
(declare-fun m4_0 () (_ BitVec 64))
(declare-fun m3_0 () (_ BitVec 64))
(declare-fun m2_0 () (_ BitVec 64))
(declare-fun m1_0 () (_ BitVec 64))
(declare-fun m0_0 () (_ BitVec 64))
(declare-fun dontcare_4 () (_ BitVec 64))
(declare-fun dontcare_3 () (_ BitVec 64))
(declare-fun dontcare_2 () (_ BitVec 64))
(declare-fun dontcare_1 () (_ BitVec 64))
(declare-fun carry_52 () (_ BitVec 1))
(declare-fun carry_51 () (_ BitVec 1))
(declare-fun carry_50 () (_ BitVec 1))
(declare-fun carry_49 () (_ BitVec 1))
(declare-fun carry_48 () (_ BitVec 1))
(declare-fun carry_47 () (_ BitVec 1))
(declare-fun carry_46 () (_ BitVec 1))
(declare-fun carry_45 () (_ BitVec 1))
(declare-fun carry_44 () (_ BitVec 1))
(declare-fun carry_43 () (_ BitVec 1))
(declare-fun carry_42 () (_ BitVec 1))
(declare-fun carry_41 () (_ BitVec 1))
(declare-fun carry_40 () (_ BitVec 1))
(declare-fun carry_39 () (_ BitVec 1))
(declare-fun carry_38 () (_ BitVec 1))
(declare-fun carry_37 () (_ BitVec 1))
(declare-fun carry_36 () (_ BitVec 1))
(declare-fun carry_35 () (_ BitVec 1))
(declare-fun carry_34 () (_ BitVec 1))
(declare-fun carry_33 () (_ BitVec 1))
(declare-fun carry_32 () (_ BitVec 1))
(declare-fun carry_31 () (_ BitVec 1))
(declare-fun carry_30 () (_ BitVec 1))
(declare-fun carry_29 () (_ BitVec 1))
(declare-fun carry_28 () (_ BitVec 1))
(declare-fun carry_27 () (_ BitVec 1))
(declare-fun carry_26 () (_ BitVec 1))
(declare-fun carry_25 () (_ BitVec 1))
(declare-fun carry_24 () (_ BitVec 1))
(declare-fun carry_23 () (_ BitVec 1))
(declare-fun carry_22 () (_ BitVec 1))
(declare-fun carry_21 () (_ BitVec 1))
(declare-fun carry_20 () (_ BitVec 1))
(declare-fun carry_19 () (_ BitVec 1))
(declare-fun carry_18 () (_ BitVec 1))
(declare-fun carry_17 () (_ BitVec 1))
(declare-fun carry_16 () (_ BitVec 1))
(declare-fun carry_15 () (_ BitVec 1))
(declare-fun carry_14 () (_ BitVec 1))
(declare-fun carry_13 () (_ BitVec 1))
(declare-fun carry_12 () (_ BitVec 1))
(declare-fun carry_11 () (_ BitVec 1))
(declare-fun carry_10 () (_ BitVec 1))
(declare-fun carry_9 () (_ BitVec 1))
(declare-fun carry_8 () (_ BitVec 1))
(declare-fun carry_7 () (_ BitVec 1))
(declare-fun carry_6 () (_ BitVec 1))
(declare-fun carry_5 () (_ BitVec 1))
(declare-fun carry_4 () (_ BitVec 1))
(declare-fun carry_3 () (_ BitVec 1))
(declare-fun carry_2 () (_ BitVec 1))
(declare-fun carry_1 () (_ BitVec 1))
(declare-fun b5_0 () (_ BitVec 64))
(declare-fun b4_0 () (_ BitVec 64))
(declare-fun b3_0 () (_ BitVec 64))
(declare-fun b2_0 () (_ BitVec 64))
(declare-fun b1_0 () (_ BitVec 64))
(declare-fun b0_0 () (_ BitVec 64))
(declare-fun a5_0 () (_ BitVec 64))
(declare-fun a4_0 () (_ BitVec 64))
(declare-fun a3_0 () (_ BitVec 64))
(declare-fun a2_0 () (_ BitVec 64))
(declare-fun a1_0 () (_ BitVec 64))
(declare-fun a0_0 () (_ BitVec 64))
(assert (and (and (and (and (and (and (and (= m0_0 #xB9FEFFFFFFFFAAAB) (= m1_0 #x1EABFFFEB153FFFF)) (= m2_0 #x6730D2A0F6B0F624)) (= m3_0 #x64774B84F38512BF)) (= m4_0 #x4B1BA7B6434BACD7)) (= m5_0 #x1A0111EA397FE69A)) (bvult (bvadd (bvmul ((_ zero_extend 320) a0_0) #x000000000000000000000000000000000000000000000000000000000000000000000000000000000000000000000001) (bvadd (bvmul ((_ zero_extend 320) a1_0) #x000000000000000000000000000000000000000000000000000000000000000000000000000000010000000000000000) (bvadd (bvmul ((_ zero_extend 320) a2_0) #x000000000000000000000000000000000000000000000000000000000000000100000000000000000000000000000000) (bvadd (bvmul ((_ zero_extend 320) a3_0) #x000000000000000000000000000000000000000000000001000000000000000000000000000000000000000000000000) (bvadd (bvmul ((_ zero_extend 320) a4_0) #x000000000000000000000000000000010000000000000000000000000000000000000000000000000000000000000000) (bvmul ((_ zero_extend 320) a5_0) #x000000000000000100000000000000000000000000000000000000000000000000000000000000000000000000000000)))))) (bvadd (bvmul ((_ zero_extend 320) m0_0) #x000000000000000000000000000000000000000000000000000000000000000000000000000000000000000000000001) (bvadd (bvmul ((_ zero_extend 320) m1_0) #x000000000000000000000000000000000000000000000000000000000000000000000000000000010000000000000000) (bvadd (bvmul ((_ zero_extend 320) m2_0) #x000000000000000000000000000000000000000000000000000000000000000100000000000000000000000000000000) (bvadd (bvmul ((_ zero_extend 320) m3_0) #x000000000000000000000000000000000000000000000001000000000000000000000000000000000000000000000000) (bvadd (bvmul ((_ zero_extend 320) m4_0) #x000000000000000000000000000000010000000000000000000000000000000000000000000000000000000000000000) (bvmul ((_ zero_extend 320) m5_0) #x000000000000000100000000000000000000000000000000000000000000000000000000000000000000000000000000)))))))) (bvult (bvadd (bvmul ((_ zero_extend 320) b0_0) #x000000000000000000000000000000000000000000000000000000000000000000000000000000000000000000000001) (bvadd (bvmul ((_ zero_extend 320) b1_0) #x000000000000000000000000000000000000000000000000000000000000000000000000000000010000000000000000) (bvadd (bvmul ((_ zero_extend 320) b2_0) #x000000000000000000000000000000000000000000000000000000000000000100000000000000000000000000000000) (bvadd (bvmul ((_ zero_extend 320) b3_0) #x000000000000000000000000000000000000000000000001000000000000000000000000000000000000000000000000) (bvadd (bvmul ((_ zero_extend 320) b4_0) #x000000000000000000000000000000010000000000000000000000000000000000000000000000000000000000000000) (bvmul ((_ zero_extend 320) b5_0) #x000000000000000100000000000000000000000000000000000000000000000000000000000000000000000000000000)))))) (bvadd (bvmul ((_ zero_extend 320) m0_0) #x000000000000000000000000000000000000000000000000000000000000000000000000000000000000000000000001) (bvadd (bvmul ((_ zero_extend 320) m1_0) #x000000000000000000000000000000000000000000000000000000000000000000000000000000010000000000000000) (bvadd (bvmul ((_ zero_extend 320) m2_0) #x000000000000000000000000000000000000000000000000000000000000000100000000000000000000000000000000) (bvadd (bvmul ((_ zero_extend 320) m3_0) #x000000000000000000000000000000000000000000000001000000000000000000000000000000000000000000000000) (bvadd (bvmul ((_ zero_extend 320) m4_0) #x000000000000000000000000000000010000000000000000000000000000000000000000000000000000000000000000) (bvmul ((_ zero_extend 320) m5_0) #x000000000000000100000000000000000000000000000000000000000000000000000000000000000000000000000000)))))))))
(assert (and (= carry_1 ((_ extract 64 64) (bvadd ((_ zero_extend 1) a0_0) ((_ zero_extend 1) a0_0)))) (= x10_2 ((_ extract 63 0) (bvadd ((_ zero_extend 1) a0_0) ((_ zero_extend 1) a0_0))))))
(assert (and (= carry_2 ((_ extract 64 64) (bvadd (bvadd ((_ zero_extend 1) a1_0) ((_ zero_extend 1) a1_0)) ((_ zero_extend 64) carry_1)))) (= x11_2 ((_ extract 63 0) (bvadd (bvadd ((_ zero_extend 1) a1_0) ((_ zero_extend 1) a1_0)) ((_ zero_extend 64) carry_1))))))
(assert (and (= carry_3 ((_ extract 64 64) (bvadd (bvadd ((_ zero_extend 1) a2_0) ((_ zero_extend 1) a2_0)) ((_ zero_extend 64) carry_2)))) (= x12_2 ((_ extract 63 0) (bvadd (bvadd ((_ zero_extend 1) a2_0) ((_ zero_extend 1) a2_0)) ((_ zero_extend 64) carry_2))))))
(assert (and (= carry_4 ((_ extract 64 64) (bvadd (bvadd ((_ zero_extend 1) a3_0) ((_ zero_extend 1) a3_0)) ((_ zero_extend 64) carry_3)))) (= x13_2 ((_ extract 63 0) (bvadd (bvadd ((_ zero_extend 1) a3_0) ((_ zero_extend 1) a3_0)) ((_ zero_extend 64) carry_3))))))
(assert (and (= carry_5 ((_ extract 64 64) (bvadd (bvadd ((_ zero_extend 1) a4_0) ((_ zero_extend 1) a4_0)) ((_ zero_extend 64) carry_4)))) (= x14_2 ((_ extract 63 0) (bvadd (bvadd ((_ zero_extend 1) a4_0) ((_ zero_extend 1) a4_0)) ((_ zero_extend 64) carry_4))))))
(assert (and (= carry_6 ((_ extract 64 64) (bvadd (bvadd ((_ zero_extend 1) a5_0) ((_ zero_extend 1) a5_0)) ((_ zero_extend 64) carry_5)))) (= x15_2 ((_ extract 63 0) (bvadd (bvadd ((_ zero_extend 1) a5_0) ((_ zero_extend 1) a5_0)) ((_ zero_extend 64) carry_5))))))
(assert (= x3_1 (bvadd (bvadd #x0000000000000000 #x0000000000000000) ((_ zero_extend 63) carry_6))))
(assert (and (= carry_7 ((_ extract 64 64) (bvadd (bvadd ((_ zero_extend 1) x10_2) ((_ zero_extend 1) (bvnot m0_0))) #b00000000000000000000000000000000000000000000000000000000000000001))) (= x16_1 ((_ extract 63 0) (bvadd (bvadd ((_ zero_extend 1) x10_2) ((_ zero_extend 1) (bvnot m0_0))) #b00000000000000000000000000000000000000000000000000000000000000001)))))
(assert (and (= carry_8 ((_ extract 64 64) (bvadd (bvadd ((_ zero_extend 1) x11_2) ((_ zero_extend 1) (bvnot m1_0))) ((_ zero_extend 64) carry_7)))) (= x17_1 ((_ extract 63 0) (bvadd (bvadd ((_ zero_extend 1) x11_2) ((_ zero_extend 1) (bvnot m1_0))) ((_ zero_extend 64) carry_7))))))
(assert (and (= carry_9 ((_ extract 64 64) (bvadd (bvadd ((_ zero_extend 1) x12_2) ((_ zero_extend 1) (bvnot m2_0))) ((_ zero_extend 64) carry_8)))) (= x19_1 ((_ extract 63 0) (bvadd (bvadd ((_ zero_extend 1) x12_2) ((_ zero_extend 1) (bvnot m2_0))) ((_ zero_extend 64) carry_8))))))
(assert (and (= carry_10 ((_ extract 64 64) (bvadd (bvadd ((_ zero_extend 1) x13_2) ((_ zero_extend 1) (bvnot m3_0))) ((_ zero_extend 64) carry_9)))) (= x20_1 ((_ extract 63 0) (bvadd (bvadd ((_ zero_extend 1) x13_2) ((_ zero_extend 1) (bvnot m3_0))) ((_ zero_extend 64) carry_9))))))
(assert (and (= carry_11 ((_ extract 64 64) (bvadd (bvadd ((_ zero_extend 1) x14_2) ((_ zero_extend 1) (bvnot m4_0))) ((_ zero_extend 64) carry_10)))) (= x21_1 ((_ extract 63 0) (bvadd (bvadd ((_ zero_extend 1) x14_2) ((_ zero_extend 1) (bvnot m4_0))) ((_ zero_extend 64) carry_10))))))
(assert (and (= carry_12 ((_ extract 64 64) (bvadd (bvadd ((_ zero_extend 1) x15_2) ((_ zero_extend 1) (bvnot m5_0))) ((_ zero_extend 64) carry_11)))) (= x22_1 ((_ extract 63 0) (bvadd (bvadd ((_ zero_extend 1) x15_2) ((_ zero_extend 1) (bvnot m5_0))) ((_ zero_extend 64) carry_11))))))
(assert (and (= carry_13 ((_ extract 64 64) (bvadd (bvadd ((_ zero_extend 1) x3_1) ((_ zero_extend 1) (bvnot #x0000000000000000))) ((_ zero_extend 64) carry_12)))) (= dontcare_1 ((_ extract 63 0) (bvadd (bvadd ((_ zero_extend 1) x3_1) ((_ zero_extend 1) (bvnot #x0000000000000000))) ((_ zero_extend 64) carry_12))))))
(assert (= x10_3 (ite (= carry_13 #b1) x16_1 x10_2)))
(assert (= x11_3 (ite (= carry_13 #b1) x17_1 x11_2)))
(assert (= x12_3 (ite (= carry_13 #b1) x19_1 x12_2)))
(assert (= x13_3 (ite (= carry_13 #b1) x20_1 x13_2)))
(assert (= x14_3 (ite (= carry_13 #b1) x21_1 x14_2)))
(assert (= x15_3 (ite (= carry_13 #b1) x22_1 x15_2)))
(assert (and (= carry_14 ((_ extract 64 64) (bvadd ((_ zero_extend 1) x10_3) ((_ zero_extend 1) a0_0)))) (= x10_4 ((_ extract 63 0) (bvadd ((_ zero_extend 1) x10_3) ((_ zero_extend 1) a0_0))))))
(assert (and (= carry_15 ((_ extract 64 64) (bvadd (bvadd ((_ zero_extend 1) x11_3) ((_ zero_extend 1) a1_0)) ((_ zero_extend 64) carry_14)))) (= x11_4 ((_ extract 63 0) (bvadd (bvadd ((_ zero_extend 1) x11_3) ((_ zero_extend 1) a1_0)) ((_ zero_extend 64) carry_14))))))
(assert (and (= carry_16 ((_ extract 64 64) (bvadd (bvadd ((_ zero_extend 1) x12_3) ((_ zero_extend 1) a2_0)) ((_ zero_extend 64) carry_15)))) (= x12_4 ((_ extract 63 0) (bvadd (bvadd ((_ zero_extend 1) x12_3) ((_ zero_extend 1) a2_0)) ((_ zero_extend 64) carry_15))))))
(assert (and (= carry_17 ((_ extract 64 64) (bvadd (bvadd ((_ zero_extend 1) x13_3) ((_ zero_extend 1) a3_0)) ((_ zero_extend 64) carry_16)))) (= x13_4 ((_ extract 63 0) (bvadd (bvadd ((_ zero_extend 1) x13_3) ((_ zero_extend 1) a3_0)) ((_ zero_extend 64) carry_16))))))
(assert (and (= carry_18 ((_ extract 64 64) (bvadd (bvadd ((_ zero_extend 1) x14_3) ((_ zero_extend 1) a4_0)) ((_ zero_extend 64) carry_17)))) (= x14_4 ((_ extract 63 0) (bvadd (bvadd ((_ zero_extend 1) x14_3) ((_ zero_extend 1) a4_0)) ((_ zero_extend 64) carry_17))))))
(assert (and (= carry_19 ((_ extract 64 64) (bvadd (bvadd ((_ zero_extend 1) x15_3) ((_ zero_extend 1) a5_0)) ((_ zero_extend 64) carry_18)))) (= x15_4 ((_ extract 63 0) (bvadd (bvadd ((_ zero_extend 1) x15_3) ((_ zero_extend 1) a5_0)) ((_ zero_extend 64) carry_18))))))
(assert (= x3_2 (bvadd (bvadd #x0000000000000000 #x0000000000000000) ((_ zero_extend 63) carry_19))))
(assert (and (= carry_20 ((_ extract 64 64) (bvadd (bvadd ((_ zero_extend 1) x10_4) ((_ zero_extend 1) (bvnot m0_0))) #b00000000000000000000000000000000000000000000000000000000000000001))) (= x16_3 ((_ extract 63 0) (bvadd (bvadd ((_ zero_extend 1) x10_4) ((_ zero_extend 1) (bvnot m0_0))) #b00000000000000000000000000000000000000000000000000000000000000001)))))
(assert (and (= carry_21 ((_ extract 64 64) (bvadd (bvadd ((_ zero_extend 1) x11_4) ((_ zero_extend 1) (bvnot m1_0))) ((_ zero_extend 64) carry_20)))) (= x17_3 ((_ extract 63 0) (bvadd (bvadd ((_ zero_extend 1) x11_4) ((_ zero_extend 1) (bvnot m1_0))) ((_ zero_extend 64) carry_20))))))
(assert (and (= carry_22 ((_ extract 64 64) (bvadd (bvadd ((_ zero_extend 1) x12_4) ((_ zero_extend 1) (bvnot m2_0))) ((_ zero_extend 64) carry_21)))) (= x19_3 ((_ extract 63 0) (bvadd (bvadd ((_ zero_extend 1) x12_4) ((_ zero_extend 1) (bvnot m2_0))) ((_ zero_extend 64) carry_21))))))
(assert (and (= carry_23 ((_ extract 64 64) (bvadd (bvadd ((_ zero_extend 1) x13_4) ((_ zero_extend 1) (bvnot m3_0))) ((_ zero_extend 64) carry_22)))) (= x20_3 ((_ extract 63 0) (bvadd (bvadd ((_ zero_extend 1) x13_4) ((_ zero_extend 1) (bvnot m3_0))) ((_ zero_extend 64) carry_22))))))
(assert (and (= carry_24 ((_ extract 64 64) (bvadd (bvadd ((_ zero_extend 1) x14_4) ((_ zero_extend 1) (bvnot m4_0))) ((_ zero_extend 64) carry_23)))) (= x21_3 ((_ extract 63 0) (bvadd (bvadd ((_ zero_extend 1) x14_4) ((_ zero_extend 1) (bvnot m4_0))) ((_ zero_extend 64) carry_23))))))
(assert (and (= carry_25 ((_ extract 64 64) (bvadd (bvadd ((_ zero_extend 1) x15_4) ((_ zero_extend 1) (bvnot m5_0))) ((_ zero_extend 64) carry_24)))) (= x22_3 ((_ extract 63 0) (bvadd (bvadd ((_ zero_extend 1) x15_4) ((_ zero_extend 1) (bvnot m5_0))) ((_ zero_extend 64) carry_24))))))
(assert (and (= carry_26 ((_ extract 64 64) (bvadd (bvadd ((_ zero_extend 1) x3_2) ((_ zero_extend 1) (bvnot #x0000000000000000))) ((_ zero_extend 64) carry_25)))) (= dontcare_2 ((_ extract 63 0) (bvadd (bvadd ((_ zero_extend 1) x3_2) ((_ zero_extend 1) (bvnot #x0000000000000000))) ((_ zero_extend 64) carry_25))))))
(assert (= x10_5 (ite (= carry_26 #b1) x16_3 x10_4)))
(assert (= x11_5 (ite (= carry_26 #b1) x17_3 x11_4)))
(assert (= x12_5 (ite (= carry_26 #b1) x19_3 x12_4)))
(assert (= x13_5 (ite (= carry_26 #b1) x20_3 x13_4)))
(assert (= x14_5 (ite (= carry_26 #b1) x21_3 x14_4)))
(assert (= x15_5 (ite (= carry_26 #b1) x22_3 x15_4)))
(assert (and (= carry_27 ((_ extract 64 64) (bvadd ((_ zero_extend 1) b0_0) ((_ zero_extend 1) b0_0)))) (= x10_7 ((_ extract 63 0) (bvadd ((_ zero_extend 1) b0_0) ((_ zero_extend 1) b0_0))))))
(assert (and (= carry_28 ((_ extract 64 64) (bvadd (bvadd ((_ zero_extend 1) b1_0) ((_ zero_extend 1) b1_0)) ((_ zero_extend 64) carry_27)))) (= x11_7 ((_ extract 63 0) (bvadd (bvadd ((_ zero_extend 1) b1_0) ((_ zero_extend 1) b1_0)) ((_ zero_extend 64) carry_27))))))
(assert (and (= carry_29 ((_ extract 64 64) (bvadd (bvadd ((_ zero_extend 1) b2_0) ((_ zero_extend 1) b2_0)) ((_ zero_extend 64) carry_28)))) (= x12_7 ((_ extract 63 0) (bvadd (bvadd ((_ zero_extend 1) b2_0) ((_ zero_extend 1) b2_0)) ((_ zero_extend 64) carry_28))))))
(assert (and (= carry_30 ((_ extract 64 64) (bvadd (bvadd ((_ zero_extend 1) b3_0) ((_ zero_extend 1) b3_0)) ((_ zero_extend 64) carry_29)))) (= x13_7 ((_ extract 63 0) (bvadd (bvadd ((_ zero_extend 1) b3_0) ((_ zero_extend 1) b3_0)) ((_ zero_extend 64) carry_29))))))
(assert (and (= carry_31 ((_ extract 64 64) (bvadd (bvadd ((_ zero_extend 1) b4_0) ((_ zero_extend 1) b4_0)) ((_ zero_extend 64) carry_30)))) (= x14_7 ((_ extract 63 0) (bvadd (bvadd ((_ zero_extend 1) b4_0) ((_ zero_extend 1) b4_0)) ((_ zero_extend 64) carry_30))))))
(assert (and (= carry_32 ((_ extract 64 64) (bvadd (bvadd ((_ zero_extend 1) b5_0) ((_ zero_extend 1) b5_0)) ((_ zero_extend 64) carry_31)))) (= x15_7 ((_ extract 63 0) (bvadd (bvadd ((_ zero_extend 1) b5_0) ((_ zero_extend 1) b5_0)) ((_ zero_extend 64) carry_31))))))
(assert (= x3_3 (bvadd (bvadd #x0000000000000000 #x0000000000000000) ((_ zero_extend 63) carry_32))))
(assert (and (= carry_33 ((_ extract 64 64) (bvadd (bvadd ((_ zero_extend 1) x10_7) ((_ zero_extend 1) (bvnot m0_0))) #b00000000000000000000000000000000000000000000000000000000000000001))) (= x16_4 ((_ extract 63 0) (bvadd (bvadd ((_ zero_extend 1) x10_7) ((_ zero_extend 1) (bvnot m0_0))) #b00000000000000000000000000000000000000000000000000000000000000001)))))
(assert (and (= carry_34 ((_ extract 64 64) (bvadd (bvadd ((_ zero_extend 1) x11_7) ((_ zero_extend 1) (bvnot m1_0))) ((_ zero_extend 64) carry_33)))) (= x17_4 ((_ extract 63 0) (bvadd (bvadd ((_ zero_extend 1) x11_7) ((_ zero_extend 1) (bvnot m1_0))) ((_ zero_extend 64) carry_33))))))
(assert (and (= carry_35 ((_ extract 64 64) (bvadd (bvadd ((_ zero_extend 1) x12_7) ((_ zero_extend 1) (bvnot m2_0))) ((_ zero_extend 64) carry_34)))) (= x19_4 ((_ extract 63 0) (bvadd (bvadd ((_ zero_extend 1) x12_7) ((_ zero_extend 1) (bvnot m2_0))) ((_ zero_extend 64) carry_34))))))
(assert (and (= carry_36 ((_ extract 64 64) (bvadd (bvadd ((_ zero_extend 1) x13_7) ((_ zero_extend 1) (bvnot m3_0))) ((_ zero_extend 64) carry_35)))) (= x20_4 ((_ extract 63 0) (bvadd (bvadd ((_ zero_extend 1) x13_7) ((_ zero_extend 1) (bvnot m3_0))) ((_ zero_extend 64) carry_35))))))
(assert (and (= carry_37 ((_ extract 64 64) (bvadd (bvadd ((_ zero_extend 1) x14_7) ((_ zero_extend 1) (bvnot m4_0))) ((_ zero_extend 64) carry_36)))) (= x21_4 ((_ extract 63 0) (bvadd (bvadd ((_ zero_extend 1) x14_7) ((_ zero_extend 1) (bvnot m4_0))) ((_ zero_extend 64) carry_36))))))
(assert (and (= carry_38 ((_ extract 64 64) (bvadd (bvadd ((_ zero_extend 1) x15_7) ((_ zero_extend 1) (bvnot m5_0))) ((_ zero_extend 64) carry_37)))) (= x22_4 ((_ extract 63 0) (bvadd (bvadd ((_ zero_extend 1) x15_7) ((_ zero_extend 1) (bvnot m5_0))) ((_ zero_extend 64) carry_37))))))
(assert (and (= carry_39 ((_ extract 64 64) (bvadd (bvadd ((_ zero_extend 1) x3_3) ((_ zero_extend 1) (bvnot #x0000000000000000))) ((_ zero_extend 64) carry_38)))) (= dontcare_3 ((_ extract 63 0) (bvadd (bvadd ((_ zero_extend 1) x3_3) ((_ zero_extend 1) (bvnot #x0000000000000000))) ((_ zero_extend 64) carry_38))))))
(assert (= x10_8 (ite (= carry_39 #b1) x16_4 x10_7)))
(assert (= x11_8 (ite (= carry_39 #b1) x17_4 x11_7)))
(assert (= x12_8 (ite (= carry_39 #b1) x19_4 x12_7)))
(assert (= x13_8 (ite (= carry_39 #b1) x20_4 x13_7)))
(assert (= x14_8 (ite (= carry_39 #b1) x21_4 x14_7)))
(assert (= x15_8 (ite (= carry_39 #b1) x22_4 x15_7)))
(assert (and (= carry_40 ((_ extract 64 64) (bvadd ((_ zero_extend 1) x10_8) ((_ zero_extend 1) b0_0)))) (= x10_9 ((_ extract 63 0) (bvadd ((_ zero_extend 1) x10_8) ((_ zero_extend 1) b0_0))))))
(assert (and (= carry_41 ((_ extract 64 64) (bvadd (bvadd ((_ zero_extend 1) x11_8) ((_ zero_extend 1) b1_0)) ((_ zero_extend 64) carry_40)))) (= x11_9 ((_ extract 63 0) (bvadd (bvadd ((_ zero_extend 1) x11_8) ((_ zero_extend 1) b1_0)) ((_ zero_extend 64) carry_40))))))
(assert (and (= carry_42 ((_ extract 64 64) (bvadd (bvadd ((_ zero_extend 1) x12_8) ((_ zero_extend 1) b2_0)) ((_ zero_extend 64) carry_41)))) (= x12_9 ((_ extract 63 0) (bvadd (bvadd ((_ zero_extend 1) x12_8) ((_ zero_extend 1) b2_0)) ((_ zero_extend 64) carry_41))))))
(assert (and (= carry_43 ((_ extract 64 64) (bvadd (bvadd ((_ zero_extend 1) x13_8) ((_ zero_extend 1) b3_0)) ((_ zero_extend 64) carry_42)))) (= x13_9 ((_ extract 63 0) (bvadd (bvadd ((_ zero_extend 1) x13_8) ((_ zero_extend 1) b3_0)) ((_ zero_extend 64) carry_42))))))
(assert (and (= carry_44 ((_ extract 64 64) (bvadd (bvadd ((_ zero_extend 1) x14_8) ((_ zero_extend 1) b4_0)) ((_ zero_extend 64) carry_43)))) (= x14_9 ((_ extract 63 0) (bvadd (bvadd ((_ zero_extend 1) x14_8) ((_ zero_extend 1) b4_0)) ((_ zero_extend 64) carry_43))))))
(assert (and (= carry_45 ((_ extract 64 64) (bvadd (bvadd ((_ zero_extend 1) x15_8) ((_ zero_extend 1) b5_0)) ((_ zero_extend 64) carry_44)))) (= x15_9 ((_ extract 63 0) (bvadd (bvadd ((_ zero_extend 1) x15_8) ((_ zero_extend 1) b5_0)) ((_ zero_extend 64) carry_44))))))
(assert (= x3_4 (bvadd (bvadd #x0000000000000000 #x0000000000000000) ((_ zero_extend 63) carry_45))))
(assert (and (= carry_46 ((_ extract 64 64) (bvadd (bvadd ((_ zero_extend 1) x10_9) ((_ zero_extend 1) (bvnot m0_0))) #b00000000000000000000000000000000000000000000000000000000000000001))) (= x16_6 ((_ extract 63 0) (bvadd (bvadd ((_ zero_extend 1) x10_9) ((_ zero_extend 1) (bvnot m0_0))) #b00000000000000000000000000000000000000000000000000000000000000001)))))
(assert (and (= carry_47 ((_ extract 64 64) (bvadd (bvadd ((_ zero_extend 1) x11_9) ((_ zero_extend 1) (bvnot m1_0))) ((_ zero_extend 64) carry_46)))) (= x17_6 ((_ extract 63 0) (bvadd (bvadd ((_ zero_extend 1) x11_9) ((_ zero_extend 1) (bvnot m1_0))) ((_ zero_extend 64) carry_46))))))
(assert (and (= carry_48 ((_ extract 64 64) (bvadd (bvadd ((_ zero_extend 1) x12_9) ((_ zero_extend 1) (bvnot m2_0))) ((_ zero_extend 64) carry_47)))) (= x19_6 ((_ extract 63 0) (bvadd (bvadd ((_ zero_extend 1) x12_9) ((_ zero_extend 1) (bvnot m2_0))) ((_ zero_extend 64) carry_47))))))
(assert (and (= carry_49 ((_ extract 64 64) (bvadd (bvadd ((_ zero_extend 1) x13_9) ((_ zero_extend 1) (bvnot m3_0))) ((_ zero_extend 64) carry_48)))) (= x20_6 ((_ extract 63 0) (bvadd (bvadd ((_ zero_extend 1) x13_9) ((_ zero_extend 1) (bvnot m3_0))) ((_ zero_extend 64) carry_48))))))
(assert (and (= carry_50 ((_ extract 64 64) (bvadd (bvadd ((_ zero_extend 1) x14_9) ((_ zero_extend 1) (bvnot m4_0))) ((_ zero_extend 64) carry_49)))) (= x21_6 ((_ extract 63 0) (bvadd (bvadd ((_ zero_extend 1) x14_9) ((_ zero_extend 1) (bvnot m4_0))) ((_ zero_extend 64) carry_49))))))
(assert (and (= carry_51 ((_ extract 64 64) (bvadd (bvadd ((_ zero_extend 1) x15_9) ((_ zero_extend 1) (bvnot m5_0))) ((_ zero_extend 64) carry_50)))) (= x22_6 ((_ extract 63 0) (bvadd (bvadd ((_ zero_extend 1) x15_9) ((_ zero_extend 1) (bvnot m5_0))) ((_ zero_extend 64) carry_50))))))
(assert (and (= carry_52 ((_ extract 64 64) (bvadd (bvadd ((_ zero_extend 1) x3_4) ((_ zero_extend 1) (bvnot #x0000000000000000))) ((_ zero_extend 64) carry_51)))) (= dontcare_4 ((_ extract 63 0) (bvadd (bvadd ((_ zero_extend 1) x3_4) ((_ zero_extend 1) (bvnot #x0000000000000000))) ((_ zero_extend 64) carry_51))))))
(assert (= x10_10 (ite (= carry_52 #b1) x16_6 x10_9)))
(assert (= x11_10 (ite (= carry_52 #b1) x17_6 x11_9)))
(assert (= x12_10 (ite (= carry_52 #b1) x19_6 x12_9)))
(assert (= x13_10 (ite (= carry_52 #b1) x20_6 x13_9)))
(assert (= x14_10 (ite (= carry_52 #b1) x21_6 x14_9)))
(assert (= x15_10 (ite (= carry_52 #b1) x22_6 x15_9)))
(assert (not (= (bvurem (bvadd (bvmul ((_ zero_extend 320) x10_10) #x000000000000000000000000000000000000000000000000000000000000000000000000000000000000000000000001) (bvadd (bvmul ((_ zero_extend 320) x11_10) #x000000000000000000000000000000000000000000000000000000000000000000000000000000010000000000000000) (bvadd (bvmul ((_ zero_extend 320) x12_10) #x000000000000000000000000000000000000000000000000000000000000000100000000000000000000000000000000) (bvadd (bvmul ((_ zero_extend 320) x13_10) #x000000000000000000000000000000000000000000000001000000000000000000000000000000000000000000000000) (bvadd (bvmul ((_ zero_extend 320) x14_10) #x000000000000000000000000000000010000000000000000000000000000000000000000000000000000000000000000) (bvmul ((_ zero_extend 320) x15_10) #x000000000000000100000000000000000000000000000000000000000000000000000000000000000000000000000000)))))) (bvadd (bvmul ((_ zero_extend 320) m0_0) #x000000000000000000000000000000000000000000000000000000000000000000000000000000000000000000000001) (bvadd (bvmul ((_ zero_extend 320) m1_0) #x000000000000000000000000000000000000000000000000000000000000000000000000000000010000000000000000) (bvadd (bvmul ((_ zero_extend 320) m2_0) #x000000000000000000000000000000000000000000000000000000000000000100000000000000000000000000000000) (bvadd (bvmul ((_ zero_extend 320) m3_0) #x000000000000000000000000000000000000000000000001000000000000000000000000000000000000000000000000) (bvadd (bvmul ((_ zero_extend 320) m4_0) #x000000000000000000000000000000010000000000000000000000000000000000000000000000000000000000000000) (bvmul ((_ zero_extend 320) m5_0) #x000000000000000100000000000000000000000000000000000000000000000000000000000000000000000000000000))))))) (bvurem (bvmul #x000000000000000000000000000000000000000000000000000000000000000000000000000000000000000000000003 (bvadd (bvmul ((_ zero_extend 320) b0_0) #x000000000000000000000000000000000000000000000000000000000000000000000000000000000000000000000001) (bvadd (bvmul ((_ zero_extend 320) b1_0) #x000000000000000000000000000000000000000000000000000000000000000000000000000000010000000000000000) (bvadd (bvmul ((_ zero_extend 320) b2_0) #x000000000000000000000000000000000000000000000000000000000000000100000000000000000000000000000000) (bvadd (bvmul ((_ zero_extend 320) b3_0) #x000000000000000000000000000000000000000000000001000000000000000000000000000000000000000000000000) (bvadd (bvmul ((_ zero_extend 320) b4_0) #x000000000000000000000000000000010000000000000000000000000000000000000000000000000000000000000000) (bvmul ((_ zero_extend 320) b5_0) #x000000000000000100000000000000000000000000000000000000000000000000000000000000000000000000000000))))))) (bvadd (bvmul ((_ zero_extend 320) m0_0) #x000000000000000000000000000000000000000000000000000000000000000000000000000000000000000000000001) (bvadd (bvmul ((_ zero_extend 320) m1_0) #x000000000000000000000000000000000000000000000000000000000000000000000000000000010000000000000000) (bvadd (bvmul ((_ zero_extend 320) m2_0) #x000000000000000000000000000000000000000000000000000000000000000100000000000000000000000000000000) (bvadd (bvmul ((_ zero_extend 320) m3_0) #x000000000000000000000000000000000000000000000001000000000000000000000000000000000000000000000000) (bvadd (bvmul ((_ zero_extend 320) m4_0) #x000000000000000000000000000000010000000000000000000000000000000000000000000000000000000000000000) (bvmul ((_ zero_extend 320) m5_0) #x000000000000000100000000000000000000000000000000000000000000000000000000000000000000000000000000))))))))))
(check-sat)
(exit)
